Ce  O                                   
   1.00000000000000     
     5.4600000380999996    0.0000000000000000    0.0000000000000000
     0.0000000000000000    5.4600000380999996    0.0000000000000000
     0.0000000000000000    0.0000000000000000    5.4600000380999996
   Ce   O 
     4     8
Direct
  0.0000000000000000  0.0000000000000000  0.0000000000000000
  0.0000000000000000  0.4999999999908411  0.4999999999908411
  0.4999999999908411  0.0000000000000000  0.4999999999908411
  0.4999999999908411  0.4999999999908411  0.0000000000000000
  0.2500000000869989  0.2500000000869989  0.2500000000869989
  0.7500000436675833  0.7500000436675833  0.7500000436675833
  0.7500000436675833  0.7500000436675833  0.2500000000869989
  0.2500000000869989  0.2500000000869989  0.7500000436675833
  0.7500000436675833  0.2500000000869989  0.7500000436675833
  0.2500000000869989  0.7500000436675833  0.2500000000869989
  0.2500000000869989  0.7500000436675833  0.7500000436675833
  0.7500000436675833  0.2500000000869989  0.2500000000869989
 
  0.00000000E+00  0.00000000E+00  0.00000000E+00
  0.00000000E+00  0.00000000E+00  0.00000000E+00
  0.00000000E+00  0.00000000E+00  0.00000000E+00
  0.00000000E+00  0.00000000E+00  0.00000000E+00
  0.00000000E+00  0.00000000E+00  0.00000000E+00
  0.00000000E+00  0.00000000E+00  0.00000000E+00
  0.00000000E+00  0.00000000E+00  0.00000000E+00
  0.00000000E+00  0.00000000E+00  0.00000000E+00
  0.00000000E+00  0.00000000E+00  0.00000000E+00
  0.00000000E+00  0.00000000E+00  0.00000000E+00
  0.00000000E+00  0.00000000E+00  0.00000000E+00
  0.00000000E+00  0.00000000E+00  0.00000000E+00
