New structure
1.0
        5.9899997711         0.0000000000         0.0000000000
        0.0000000000         5.9899997711         0.0000000000
        0.0000000000         0.0000000000         5.9899997711
   Au   Al
    4    8
Cartesian
     0.000000000         0.000000000         0.000000000
     0.000000000         2.994999886         2.994999886
     2.994999886         0.000000000         2.994999886
     2.994999886         2.994999886         0.000000000
     1.497499943         1.497499943         1.497499943
     4.492499828         4.492499828         4.492499828
     4.492499828         4.492499828         1.497499943
     1.497499943         1.497499943         4.492499828
     4.492499828         1.497499943         4.492499828
     1.497499943         4.492499828         1.497499943
     1.497499943         4.492499828         4.492499828
     4.492499828         1.497499943         1.497499943
