Ce  O 
 1.0000000000000000
     5.4600000380999996    0.0000000000000000    0.0000000000000000
     0.0000000000000000    5.4600000380999996    0.0000000000000000
     0.0000000000000000    0.0000000000000000    5.4600000380999996
   4   8
Cartesian
  0.0000000000000000  0.0000000000000000  0.0000000000000000
  0.0000000000000000  2.7300000190000002  2.7300000190000002
  2.7300000190000002  0.0000000000000000  2.7300000190000002
  2.7300000190000002  2.7300000190000002  0.0000000000000000
  1.3650000099999999  1.3650000099999999  1.3650000099999999
  4.0950002669999996  4.0950002669999996  4.0950002669999996
  4.0950002669999996  4.0950002669999996  1.3650000099999999
  1.3650000099999999  1.3650000099999999  4.0950002669999996
  4.0950002669999996  1.3650000099999999  4.0950002669999996
  1.3650000099999999  4.0950002669999996  1.3650000099999999
  1.3650000099999999  4.0950002669999996  4.0950002669999996
  4.0950002669999996  1.3650000099999999  1.3650000099999999
