Au Al                                   
   1.00000000000000     
     5.9899997710999999    0.0000000000000000    0.0000000000000000
     0.0000000000000000    5.9899997710999999    0.0000000000000000
     0.0000000000000000    0.0000000000000000    5.9899997710999999
   Au   Al
     4     8
Direct
  0.0000000000000000  0.0000000000000000  0.0000000000000000
  0.0000000000000000  0.5000000000751257  0.5000000000751257
  0.5000000000751257  0.0000000000000000  0.5000000000751257
  0.5000000000751257  0.5000000000751257  0.0000000000000000
  0.2500000000375593  0.2500000000375593  0.2500000000375593
  0.7499999999457430  0.7499999999457430  0.7499999999457430
  0.7499999999457430  0.7499999999457430  0.2500000000375593
  0.2500000000375593  0.2500000000375593  0.7499999999457430
  0.7499999999457430  0.2500000000375593  0.7499999999457430
  0.2500000000375593  0.7499999999457430  0.2500000000375593
  0.2500000000375593  0.7499999999457430  0.7499999999457430
  0.7499999999457430  0.2500000000375593  0.2500000000375593
 
  0.00000000E+00  0.00000000E+00  0.00000000E+00
  0.00000000E+00  0.00000000E+00  0.00000000E+00
  0.00000000E+00  0.00000000E+00  0.00000000E+00
  0.00000000E+00  0.00000000E+00  0.00000000E+00
  0.00000000E+00  0.00000000E+00  0.00000000E+00
  0.00000000E+00  0.00000000E+00  0.00000000E+00
  0.00000000E+00  0.00000000E+00  0.00000000E+00
  0.00000000E+00  0.00000000E+00  0.00000000E+00
  0.00000000E+00  0.00000000E+00  0.00000000E+00
  0.00000000E+00  0.00000000E+00  0.00000000E+00
  0.00000000E+00  0.00000000E+00  0.00000000E+00
  0.00000000E+00  0.00000000E+00  0.00000000E+00
