Au Al 
 1.0000000000000000
     5.9899997710999999    0.0000000000000000    0.0000000000000000
     0.0000000000000000    5.9899997710999999    0.0000000000000000
     0.0000000000000000    0.0000000000000000    5.9899997710999999
   4   8
Cartesian
  0.0000000000000000  0.0000000000000000  0.0000000000000000
  0.0000000000000000  2.9949998860000000  2.9949998860000000
  2.9949998860000000  0.0000000000000000  2.9949998860000000
  2.9949998860000000  2.9949998860000000  0.0000000000000000
  1.4974999430000000  1.4974999430000000  1.4974999430000000
  4.4924998279999997  4.4924998279999997  4.4924998279999997
  4.4924998279999997  4.4924998279999997  1.4974999430000000
  1.4974999430000000  1.4974999430000000  4.4924998279999997
  4.4924998279999997  1.4974999430000000  4.4924998279999997
  1.4974999430000000  4.4924998279999997  1.4974999430000000
  1.4974999430000000  4.4924998279999997  4.4924998279999997
  4.4924998279999997  1.4974999430000000  1.4974999430000000
