Au Al Au Al Au Al Au Al Au Al Au Al Au Al Au Al 
 1.0000000000000000
    11.9799995421999999    0.0000000000000000    0.0000000000000000
     0.0000000000000000   11.9799995421999999    0.0000000000000000
     0.0000000000000000    0.0000000000000000   11.9799995421999999
   4   8   4   8   4   8   4   8   4   8   4   8   4   8   4   8
Cartesian
  0.0000000000000000  0.0000000000000000  0.0000000000000000
  0.0000000000000000  2.9949998860000000  2.9949998860000000
  2.9949998860000000  0.0000000000000000  2.9949998860000000
  2.9949998860000000  2.9949998860000000  0.0000000000000000
  1.4974999430000000  1.4974999430000000  1.4974999430000000
  4.4924998279999997  4.4924998279999997  4.4924998279999997
  4.4924998279999997  4.4924998279999997  1.4974999430000000
  1.4974999430000000  1.4974999430000000  4.4924998279999997
  4.4924998279999997  1.4974999430000000  4.4924998279999997
  1.4974999430000000  4.4924998279999997  1.4974999430000000
  1.4974999430000000  4.4924998279999997  4.4924998279999997
  4.4924998279999997  1.4974999430000000  1.4974999430000000
  0.0000000000000000  0.0000000000000000  5.9899997710999999
  0.0000000000000000  2.9949998860000000  8.9849996570999995
  2.9949998860000000  0.0000000000000000  8.9849996570999995
  2.9949998860000000  2.9949998860000000  5.9899997710999999
  1.4974999430000000  1.4974999430000000  7.4874997141000001
  4.4924998279999997  4.4924998279999997 10.4824995990999987
  4.4924998279999997  4.4924998279999997  7.4874997141000001
  1.4974999430000000  1.4974999430000000 10.4824995990999987
  4.4924998279999997  1.4974999430000000 10.4824995990999987
  1.4974999430000000  4.4924998279999997  7.4874997141000001
  1.4974999430000000  4.4924998279999997 10.4824995990999987
  4.4924998279999997  1.4974999430000000  7.4874997141000001
  0.0000000000000000  5.9899997710999999  0.0000000000000000
  0.0000000000000000  8.9849996570999995  2.9949998860000000
  2.9949998860000000  5.9899997710999999  2.9949998860000000
  2.9949998860000000  8.9849996570999995  0.0000000000000000
  1.4974999430000000  7.4874997141000001  1.4974999430000000
  4.4924998279999997 10.4824995990999987  4.4924998279999997
  4.4924998279999997 10.4824995990999987  1.4974999430000000
  1.4974999430000000  7.4874997141000001  4.4924998279999997
  4.4924998279999997  7.4874997141000001  4.4924998279999997
  1.4974999430000000 10.4824995990999987  1.4974999430000000
  1.4974999430000000 10.4824995990999987  4.4924998279999997
  4.4924998279999997  7.4874997141000001  1.4974999430000000
  0.0000000000000000  5.9899997710999999  5.9899997710999999
  0.0000000000000000  8.9849996570999995  8.9849996570999995
  2.9949998860000000  5.9899997710999999  8.9849996570999995
  2.9949998860000000  8.9849996570999995  5.9899997710999999
  1.4974999430000000  7.4874997141000001  7.4874997141000001
  4.4924998279999997 10.4824995990999987 10.4824995990999987
  4.4924998279999997 10.4824995990999987  7.4874997141000001
  1.4974999430000000  7.4874997141000001 10.4824995990999987
  4.4924998279999997  7.4874997141000001 10.4824995990999987
  1.4974999430000000 10.4824995990999987  7.4874997141000001
  1.4974999430000000 10.4824995990999987 10.4824995990999987
  4.4924998279999997  7.4874997141000001  7.4874997141000001
  5.9899997710999999  0.0000000000000000  0.0000000000000000
  5.9899997710999999  2.9949998860000000  2.9949998860000000
  8.9849996570999995  0.0000000000000000  2.9949998860000000
  8.9849996570999995  2.9949998860000000  0.0000000000000000
  7.4874997141000001  1.4974999430000000  1.4974999430000000
 10.4824995990999987  4.4924998279999997  4.4924998279999997
 10.4824995990999987  4.4924998279999997  1.4974999430000000
  7.4874997141000001  1.4974999430000000  4.4924998279999997
 10.4824995990999987  1.4974999430000000  4.4924998279999997
  7.4874997141000001  4.4924998279999997  1.4974999430000000
  7.4874997141000001  4.4924998279999997  4.4924998279999997
 10.4824995990999987  1.4974999430000000  1.4974999430000000
  5.9899997710999999  0.0000000000000000  5.9899997710999999
  5.9899997710999999  2.9949998860000000  8.9849996570999995
  8.9849996570999995  0.0000000000000000  8.9849996570999995
  8.9849996570999995  2.9949998860000000  5.9899997710999999
  7.4874997141000001  1.4974999430000000  7.4874997141000001
 10.4824995990999987  4.4924998279999997 10.4824995990999987
 10.4824995990999987  4.4924998279999997  7.4874997141000001
  7.4874997141000001  1.4974999430000000 10.4824995990999987
 10.4824995990999987  1.4974999430000000 10.4824995990999987
  7.4874997141000001  4.4924998279999997  7.4874997141000001
  7.4874997141000001  4.4924998279999997 10.4824995990999987
 10.4824995990999987  1.4974999430000000  7.4874997141000001
  5.9899997710999999  5.9899997710999999  0.0000000000000000
  5.9899997710999999  8.9849996570999995  2.9949998860000000
  8.9849996570999995  5.9899997710999999  2.9949998860000000
  8.9849996570999995  8.9849996570999995  0.0000000000000000
  7.4874997141000001  7.4874997141000001  1.4974999430000000
 10.4824995990999987 10.4824995990999987  4.4924998279999997
 10.4824995990999987 10.4824995990999987  1.4974999430000000
  7.4874997141000001  7.4874997141000001  4.4924998279999997
 10.4824995990999987  7.4874997141000001  4.4924998279999997
  7.4874997141000001 10.4824995990999987  1.4974999430000000
  7.4874997141000001 10.4824995990999987  4.4924998279999997
 10.4824995990999987  7.4874997141000001  1.4974999430000000
  5.9899997710999999  5.9899997710999999  5.9899997710999999
  5.9899997710999999  8.9849996570999995  8.9849996570999995
  8.9849996570999995  5.9899997710999999  8.9849996570999995
  8.9849996570999995  8.9849996570999995  5.9899997710999999
  7.4874997141000001  7.4874997141000001  7.4874997141000001
 10.4824995990999987 10.4824995990999987 10.4824995990999987
 10.4824995990999987 10.4824995990999987  7.4874997141000001
  7.4874997141000001  7.4874997141000001 10.4824995990999987
 10.4824995990999987  7.4874997141000001 10.4824995990999987
  7.4874997141000001 10.4824995990999987  7.4874997141000001
  7.4874997141000001 10.4824995990999987 10.4824995990999987
 10.4824995990999987  7.4874997141000001  7.4874997141000001
